&CONTROL
calculation='scf'
/
&SYSTEM
...
/
&electrons
...
/